sat
(:max-memory         18.23
 :memory             18.05
 :nlsat-propagations 10
 :nlsat-stages       4
 :num-allocs         8703
 :rlimit-count       7844
 :time               0.00
 :total-time         0.02)
